%%%%%%%%%%%%%%%%%%%%%%%%%%%%%%%%%%%%%%%%%%%%%%%%%%%%%%%%%%%%%%%%%%%%%%%%%
%FILE DATA:	Soccer Computational Problem for MiniZinc Models
%AUTHORS:	Robinson Duque, Alejandro Arbelaez, Juan Francisco Díaz
%CONTACT:  	robinson.duque@correounivalle.edu.co 
%LAST UPDATE:	May, 2018 
%ROUND ROBIN:2
%TEAMS:20
%PRESENT FIXTURE:21
%FIXTURES TO PLAY:17
%GAMES TO PLAY:170
%%%%%%%%%%%%%%%%%%%%%%%%%%%%%%%%%%%%%%%%%%%%%%%%%%%%%%%%%%%%%%%%%%%%%%%%%
%Number of teams:
n=20;

%For the purpose of our models, we offer two representations of the games to play, namely fixtures and games to play:

%Fixtures to play:
%fixtures=[|0,1,0,0,1,1,1,1,1,1,1,1,1,1,1,1,1,1,1,1
%|1,0,0,1,1,1,1,1,1,1,0,1,1,1,1,1,1,1,1,1
%|0,0,0,1,1,1,1,1,1,1,1,1,1,1,1,1,1,1,1,1
%|0,1,1,0,0,1,1,1,1,1,1,1,1,1,1,1,1,1,1,1
%|1,1,1,0,0,1,1,1,0,1,1,1,1,1,1,1,1,1,1,1
%|1,1,1,1,1,0,0,1,0,1,1,1,1,1,1,1,1,1,1,1
%|1,1,1,1,1,0,0,1,1,1,0,1,1,1,1,1,1,1,1,1
%|1,1,1,1,1,1,1,0,1,1,1,1,0,1,0,1,1,1,1,1
%|1,1,1,1,0,0,1,1,0,1,1,1,1,1,1,1,1,1,1,1
%|1,1,1,1,1,1,1,1,1,0,1,1,1,1,1,1,0,1,1,0
%|1,0,1,1,1,1,0,1,1,1,0,1,1,1,1,1,1,1,1,1
%|1,1,1,1,1,1,1,1,1,1,1,0,1,0,0,1,1,1,1,1
%|1,1,1,1,1,1,1,0,1,1,1,1,0,0,1,1,1,1,1,1
%|1,1,1,1,1,1,1,1,1,1,1,0,0,0,1,1,1,1,1,1
%|1,1,1,1,1,1,1,0,1,1,1,0,1,1,0,1,1,1,1,1
%|1,1,1,1,1,1,1,1,1,1,1,1,1,1,1,0,0,1,0,1
%|1,1,1,1,1,1,1,1,1,0,1,1,1,1,1,0,0,1,1,1
%|1,1,1,1,1,1,1,1,1,1,1,1,1,1,1,1,1,0,0,0
%|1,1,1,1,1,1,1,1,1,1,1,1,1,1,1,0,1,0,0,1
%|1,1,1,1,1,1,1,1,1,0,1,1,1,1,1,1,1,0,1,0|];

%Played Fixtures:
%PlayedFixtures=[|0,1,2,2,1,1,1,1,1,1,1,1,1,1,1,1,1,1,1,1
%|1,0,2,1,1,1,1,1,1,1,2,1,1,1,1,1,1,1,1,1
%|2,2,0,1,1,1,1,1,1,1,1,1,1,1,1,1,1,1,1,1
%|2,1,1,0,2,1,1,1,1,1,1,1,1,1,1,1,1,1,1,1
%|1,1,1,2,0,1,1,1,2,1,1,1,1,1,1,1,1,1,1,1
%|1,1,1,1,1,0,2,1,2,1,1,1,1,1,1,1,1,1,1,1
%|1,1,1,1,1,2,0,1,1,1,2,1,1,1,1,1,1,1,1,1
%|1,1,1,1,1,1,1,0,1,1,1,1,2,1,2,1,1,1,1,1
%|1,1,1,1,2,2,1,1,0,1,1,1,1,1,1,1,1,1,1,1
%|1,1,1,1,1,1,1,1,1,0,1,1,1,1,1,1,2,1,1,2
%|1,2,1,1,1,1,2,1,1,1,0,1,1,1,1,1,1,1,1,1
%|1,1,1,1,1,1,1,1,1,1,1,0,1,2,2,1,1,1,1,1
%|1,1,1,1,1,1,1,2,1,1,1,1,0,2,1,1,1,1,1,1
%|1,1,1,1,1,1,1,1,1,1,1,2,2,0,1,1,1,1,1,1
%|1,1,1,1,1,1,1,2,1,1,1,2,1,1,0,1,1,1,1,1
%|1,1,1,1,1,1,1,1,1,1,1,1,1,1,1,0,2,1,2,1
%|1,1,1,1,1,1,1,1,1,2,1,1,1,1,1,2,0,1,1,1
%|1,1,1,1,1,1,1,1,1,1,1,1,1,1,1,1,1,0,2,2
%|1,1,1,1,1,1,1,1,1,1,1,1,1,1,1,2,1,2,0,1
%|1,1,1,1,1,1,1,1,1,2,1,1,1,1,1,1,1,2,1,0|];

%Games to play:
games=[|2,1|4,2|4,3|5,1|5,2|5,3|6,1|6,2|6,3|6,4|6,5|7,1|7,2|7,3|7,4|7,5|8,1|8,2|8,3|8,4|8,5|8,6|8,7|9,1|9,2|9,3|9,4|9,7|9,8|10,1|10,2|10,3|10,4|10,5|10,6|10,7|10,8|10,9|11,1|11,3|11,4|11,5|11,6|11,8|11,9|11,10|12,1|12,2|12,3|12,4|12,5|12,6|12,7|12,8|12,9|12,10|12,11|13,1|13,2|13,3|13,4|13,5|13,6|13,7|13,9|13,10|13,11|13,12|14,1|14,2|14,3|14,4|14,5|14,6|14,7|14,8|14,9|14,10|14,11|15,1|15,2|15,3|15,4|15,5|15,6|15,7|15,9|15,10|15,11|15,13|15,14|16,1|16,2|16,3|16,4|16,5|16,6|16,7|16,8|16,9|16,10|16,11|16,12|16,13|16,14|16,15|17,1|17,2|17,3|17,4|17,5|17,6|17,7|17,8|17,9|17,11|17,12|17,13|17,14|17,15|18,1|18,2|18,3|18,4|18,5|18,6|18,7|18,8|18,9|18,10|18,11|18,12|18,13|18,14|18,15|18,16|18,17|19,1|19,2|19,3|19,4|19,5|19,6|19,7|19,8|19,9|19,10|19,11|19,12|19,13|19,14|19,15|19,17|20,1|20,2|20,3|20,4|20,5|20,6|20,7|20,8|20,9|20,11|20,12|20,13|20,14|20,15|20,16|20,17|20,19|];

%Played Games:
%PlayedGames=[|2,1|3,1|3,1|3,2|3,2|4,1|4,1|4,2|4,3|5,1|5,2|5,3|5,4|5,4|6,1|6,2|6,3|6,4|6,5|7,1|7,2|7,3|7,4|7,5|7,6|7,6|8,1|8,2|8,3|8,4|8,5|8,6|8,7|9,1|9,2|9,3|9,4|9,5|9,5|9,6|9,6|9,7|9,8|10,1|10,2|10,3|10,4|10,5|10,6|10,7|10,8|10,9|11,1|11,2|11,2|11,3|11,4|11,5|11,6|11,7|11,7|11,8|11,9|11,10|12,1|12,2|12,3|12,4|12,5|12,6|12,7|12,8|12,9|12,10|12,11|13,1|13,2|13,3|13,4|13,5|13,6|13,7|13,8|13,8|13,9|13,10|13,11|13,12|14,1|14,2|14,3|14,4|14,5|14,6|14,7|14,8|14,9|14,10|14,11|14,12|14,12|14,13|14,13|15,1|15,2|15,3|15,4|15,5|15,6|15,7|15,8|15,8|15,9|15,10|15,11|15,12|15,12|15,13|15,14|16,1|16,2|16,3|16,4|16,5|16,6|16,7|16,8|16,9|16,10|16,11|16,12|16,13|16,14|16,15|17,1|17,2|17,3|17,4|17,5|17,6|17,7|17,8|17,9|17,10|17,10|17,11|17,12|17,13|17,14|17,15|17,16|17,16|18,1|18,2|18,3|18,4|18,5|18,6|18,7|18,8|18,9|18,10|18,11|18,12|18,13|18,14|18,15|18,16|18,17|19,1|19,2|19,3|19,4|19,5|19,6|19,7|19,8|19,9|19,10|19,11|19,12|19,13|19,14|19,15|19,16|19,16|19,17|19,18|19,18|20,1|20,2|20,3|20,4|20,5|20,6|20,7|20,8|20,9|20,10|20,10|20,11|20,12|20,13|20,14|20,15|20,16|20,17|20,18|20,18|20,19|];

%Played Games - Win Results:
%% 0  0  0  0  0  1  0  0  0  1  0  0  0  0  0  0  0  0  0  0
%% 0  0  0  0  1  0  1  0  0  1  0  0  1  1  1  0  1  0  0  0
%% 0  0  0  0  0  1  0  0  1  0  0  0  0  0  0  0  1  0  0  0
%% 0  0  0  0  0  1  0  0  0  0  0  0  0  0  1  0  0  0  0  0
%% 1  0  0  0  0  0  1  1  0  0  1  0  0  0  0  0  1  0  0  0
%% 0  0  0  0  0  0  0  0  0  0  0  0  0  0  0  0  0  0  0  0
%% 0  0  0  0  0  0  0  0  0  0  0  0  0  0  0  0  0  0  0  0
%% 1  0  1  1  0  1  1  0  0  1  1  0  0  1  0  0  0  0  0  0
%% 0  0  0  0  0  0  0  0  0  0  0  0  0  0  0  0  0  0  0  0
%% 0  0  0  1  0  0  0  0  1  0  0  0  0  0  0  0  0  0  0  0
%% 0  0  1  0  0  0  0  0  1  0  0  0  0  0  0  0  0  0  0  0
%% 1  1  0  1  1  1  0  1  0  0  0  0  1  0  0  0  0  0  0  0
%% 1  0  0  0  0  0  0  0  0  1  1  0  0  0  1  0  0  0  0  0
%% 0  0  0  1  0  0  1  0  0  0  1  0  0  0  1  0  1  0  0  0
%% 0  0  0  0  0  0  1  0  1  0  0  0  0  0  0  0  0  0  0  0
%% 1  1  0  0  1  0  0  1  0  1  1  1  1  0  0  0  0  0  2  0
%% 0  0  0  0  0  0  0  0  0  0  0  0  0  0  0  0  0  0  0  0
%% 1  0  1  1  0  0  0  0  1  0  0  1  0  1  1  1  1  0  0  0
%% 0  1  1  0  1  1  1  0  0  1  1  1  1  1  0  0  0  0  0  0
%% 0  1  1  0  1  1  0  1  0  0  0  1  1  1  1  1  1  2  0  0
%Played Games - Tie Results:
%% 0  1  2  2  0  0  1  0  1  0  1  0  0  1  1  0  1  0  1  1
%% 1  0  2  1  0  1  0  1  1  0  2  0  0  0  0  0  0  1  0  0
%% 2  2  0  1  1  0  1  0  0  1  0  1  1  1  1  1  0  0  0  0
%% 2  1  1  0  2  0  1  0  1  0  1  0  1  0  0  1  1  0  1  1
%% 0  0  1  2  0  1  0  0  2  1  0  0  1  1  1  0  0  1  0  0
%% 0  1  0  0  1  0  2  0  2  1  1  0  1  1  1  1  1  1  0  0
%% 1  0  1  1  0  2  0  0  1  1  2  1  1  0  0  1  1  1  0  1
%% 0  1  0  0  0  0  0  0  1  0  0  0  2  0  2  0  1  1  1  0
%% 1  1  0  1  2  2  1  1  0  0  0  1  1  1  0  1  1  0  1  1
%% 0  0  1  0  1  1  1  0  0  0  1  1  0  1  1  0  2  1  0  2
%% 1  2  0  1  0  1  2  0  0  1  0  1  0  0  1  0  1  1  0  1
%% 0  0  1  0  0  0  1  0  1  1  1  0  0  2  2  0  1  0  0  0
%% 0  0  1  1  1  1  1  2  1  0  0  0  0  2  0  0  1  1  0  0
%% 1  0  1  0  1  1  0  0  1  1  0  2  2  0  0  1  0  0  0  0
%% 1  0  1  0  1  1  0  2  0  1  1  2  0  0  0  1  1  0  1  0
%% 0  0  1  1  0  1  1  0  1  0  0  0  0  1  1  0  2  0  0  0
%% 1  0  0  1  0  1  1  1  1  2  1  1  1  0  1  2  0  0  1  0
%% 0  1  0  0  1  1  1  1  0  1  1  0  1  0  0  0  0  0  2  0
%% 1  0  0  1  0  0  0  1  1  0  0  0  0  0  1  0  1  2  0  1
%% 1  0  0  1  0  0  1  0  1  2  1  0  0  0  0  0  0  0  1  0
%Played Games - Lose Results:
%% 0  0  0  0  1  0  0  1  0  0  0  1  1  0  0  1  0  1  0  0
%% 0  0  0  0  0  0  0  0  0  0  0  1  0  0  0  1  0  0  1  1
%% 0  0  0  0  0  0  0  1  0  0  1  0  0  0  0  0  0  1  1  1
%% 0  0  0  0  0  0  0  1  0  1  0  1  0  1  0  0  0  1  0  0
%% 0  1  0  0  0  0  0  0  0  0  0  1  0  0  0  1  0  0  1  1
%% 1  0  1  1  0  0  0  1  0  0  0  1  0  0  0  0  0  0  1  1
%% 0  1  0  0  1  0  0  1  0  0  0  0  0  1  1  0  0  0  1  0
%% 0  0  0  0  1  0  0  0  0  0  0  1  0  0  0  1  0  0  0  1
%% 0  0  1  0  0  0  0  0  0  1  1  0  0  0  1  0  0  1  0  0
%% 1  1  0  0  0  0  0  1  0  0  0  0  1  0  0  1  0  0  1  0
%% 0  0  0  0  1  0  0  1  0  0  0  0  1  1  0  1  0  0  1  0
%% 0  0  0  0  0  0  0  0  0  0  0  0  0  0  0  1  0  1  1  1
%% 0  1  0  0  0  0  0  0  0  0  0  1  0  0  0  1  0  0  1  1
%% 0  1  0  0  0  0  0  1  0  0  0  0  0  0  0  0  0  1  1  1
%% 0  1  0  1  0  0  0  0  0  0  0  0  1  1  0  0  0  1  0  1
%% 0  0  0  0  0  0  0  0  0  0  0  0  0  0  0  0  0  1  0  1
%% 0  1  1  0  1  0  0  0  0  0  0  0  0  1  0  0  0  1  0  1
%% 0  0  0  0  0  0  0  0  0  0  0  0  0  0  0  0  0  0  0  2
%% 0  0  0  0  0  0  0  0  0  0  0  0  0  0  0  2  0  0  0  0
%% 0  0  0  0  0  0  0  0  0  0  0  0  0  0  0  0  0  0  0  0

%%Initial points:
iPoints=[19, 31, 22, 20, 26, 14, 15, 33, 16, 19, 19, 31, 24, 26, 19, 39, 15, 37, 39, 47];

%%Initial positions:
%iPositions=[16, 7, 11, 12, 9, 20, 19, 5, 17, 15, 14, 6, 10, 8, 13, 3, 18, 4, 2, 1];

%%Position Constraints:
%numberPositionConstraints=1;

%%Total Fixtures:
%totalFixtures=38;

%%Fixtures to Play:
%fixturesToPlay=17;

%%Position Constraints Built With
%wantedPoints=[1, 0, 3, 1, 3, 3, 1, 3, 1, 1, 3, 0, 0, 1, 3, 3, 0, 1, 3, 1, 1, 1, 3, 3, 1, 3, 3, 1, 3, 0, 1, 0, 0, 1, 3, 1, 3, 0, 1, 3, 1, 0, 3, 3, 3, 0, 0, 3, 1, 0, 0, 1, 1, 1, 3, 3, 3, 3, 1, 1, 1, 0, 3, 1, 0, 0, 3, 0, 1, 0, 1, 0, 1, 3, 3, 3, 1, 3, 1, 3, 0, 0, 0, 3, 1, 1, 3, 3, 1, 0, 3, 1, 1, 1, 0, 0, 0, 0, 1, 1, 1, 0, 1, 0, 1, 1, 0, 0, 0, 3, 3, 1, 0, 3, 1, 3, 1, 0, 3, 1, 0, 3, 3, 1, 0, 0, 3, 0, 0, 3, 3, 0, 1, 3, 1, 0, 3, 1, 1, 0, 1, 3, 1, 0, 1, 0, 1, 3, 0, 1, 0, 1, 3, 0, 1, 3, 3, 1, 1, 0, 0, 3, 1, 1, 0, 1, 3, 3, 3, 0];

%POSITION CONSTRAINTS
%%[|teamID, operator, position|...]
%%operators index:
%%%1 for =  operator
%%%2 for >  operator
%%%3 for >= operator
%%%4 for <  operator
%%%5 for <= operator

positionConstraints=[|9,1,12|];

%SCORE VECTOR CONSTRAINTS
%%[|teamID, operator, wantedPoints|...]
%%operators index:
%%%1 for =  operator
%%%2 for >  operator
%%%3 for >= operator
%%%4 for <  operator
%%%5 for <= operator

%scoreVectorConstraints=[|9,1,45|];

%Instance Features:
%features=T,FP,TF,C,C/T,C/TF,FP/TF,FP/T,FP*C/T,FP*T/C,(C/T)*(FP/TF),Distance,Distance/C,Distance/T,Distance/(C*T)
%values=20,17,38,1,0.05,0.02631578947368421,0.4473684210526316,0.85,0.85,340.0,0.02236842105263158,5,5.0,0.25,0.25



gamesOfEveryTeam=[17,17,17,17,17,17,17,17,17,17,17,17,17,17,17,17,17,17,17,17];
weights=[|3,3,0,94|78,0,0,22|27,0,0,73|0,13,0,87|90,0,0,10|49,10,0,41|44,51,0,5|57,31,0,12|71,22,0,7|65,21,0,14|95,3,0,2|25,30,0,45|75,5,0,20|37,36,0,27|50,6,0,44|25,66,0,9|32,51,0,17|3,64,0,33|97,2,0,1|65,29,0,6|88,2,0,10|80,1,0,19|94,1,0,5|54,10,0,36|42,58,0,0|97,0,0,3|8,35,0,57|6,4,0,90|50,12,0,38|97,3,0,0|98,2,0,0|49,43,0,8|19,1,0,80|18,14,0,68|27,18,0,55|25,9,0,66|76,17,0,7|68,3,0,29|71,21,0,8|90,0,0,10|90,2,0,8|60,8,0,32|82,18,0,0|94,3,0,3|65,10,0,25|34,7,0,59|86,6,0,8|7,11,0,82|12,4,0,84|17,48,0,35|13,1,0,86|33,17,0,50|88,3,0,9|50,24,0,26|45,20,0,35|98,2,0,0|16,42,0,42|24,63,0,13|29,33,0,38|79,2,0,19|13,57,0,30|0,33,0,67|42,43,0,15|46,38,0,16|26,6,0,68|1,81,0,18|7,74,0,19|36,53,0,11|88,11,0,1|95,1,0,4|82,5,0,13|67,11,0,22|21,28,0,51|30,0,0,70|14,63,0,23|70,8,0,22|5,23,0,72|21,74,0,5|3,63,0,34|40,9,0,51|78,4,0,18|6,33,0,61|84,11,0,5|74,9,0,17|48,31,0,21|52,40,0,8|93,1,0,6|96,0,0,4|84,10,0,6|23,60,0,17|97,1,0,2|98,0,0,2|39,57,0,4|83,5,0,12|80,4,0,16|69,7,0,24|17,29,0,54|68,32,0,0|84,7,0,9|96,0,0,4|1,30,0,69|96,2,0,2|85,6,0,9|55,1,0,44|70,23,0,7|66,10,0,24|16,45,0,39|16,58,0,26|72,8,0,20|29,54,0,17|20,40,0,40|40,12,0,48|10,20,0,70|23,50,0,27|96,4,0,0|50,19,0,31|19,78,0,3|19,70,0,11|60,16,0,24|100,0,0,0|26,3,0,71|82,13,0,5|77,8,0,15|8,92,0,0|65,23,0,12|88,6,0,6|52,31,0,17|88,9,0,3|35,0,0,65|79,21,0,0|32,44,0,24|35,17,0,48|62,7,0,31|72,27,0,1|49,25,0,26|67,15,0,18|100,0,0,0|46,35,0,19|24,35,0,41|52,39,0,9|56,6,0,38|5,25,0,70|25,74,0,1|44,3,0,53|10,61,0,29|40,46,0,14|36,28,0,36|100,0,0,0|43,48,0,9|15,66,0,19|70,12,0,18|98,1,0,1|92,8,0,0|55,4,0,41|83,6,0,11|32,57,0,11|72,12,0,16|71,22,0,7|95,4,0,1|68,22,0,10|60,19,0,21|1,71,0,28|9,84,0,7|78,18,0,4|23,68,0,9|82,6,0,12|26,51,0,23|8,18,0,74|84,0,0,16|72,6,0,22|];